4 5 1.0 0 0 0 0 4097 4097
0 1 0 1 0
0 0 5 -1 1 3 8 -1 1 1 12 -1 1 2 8 -1 1 5 20 -1 1 4 14 
0 0 5 -1 1 1 9 -1 1 4 13 -1 1 3 19 -1 1 5 20 -1 1 2 14 
0 0 5 -1 1 1 5 -1 1 5 12 -1 1 2 20 -1 1 4 6 -1 1 3 10 
0 0 5 -1 1 4 9 -1 1 5 12 -1 1 2 10 -1 1 3 6 -1 1 1 13 
